Geometry = GenFormat {
7  C
  H C N
   1   1     0.9628720000    -1.6532600000     0.7730250000 
   2   1     1.6086300000    -1.1256800000    -0.6351620000 
   3   1    -0.2479100000     0.3790680000    -0.9963830000 
   4   1    -0.9450340000    -0.1897440000     0.5184960000 
   5   1     0.5317640000     0.7976560000     0.5440920000 
   6   2     0.0000000000     0.0000000000     0.0000000000 
   7   3     0.7345420000    -1.2611900000    -0.1357060000 
}

Hamiltonian = DFTB {
    charge = 0
    SCC = Yes
    SlaterKosterFiles {
        H-H = "/home/andersx/dev/slko-3OB_distribute130926/hh.spl"
        H-C = "/home/andersx/dev/slko-3OB_distribute130926/hc.spl"
        H-N = "/home/andersx/dev/slko-3OB_distribute130926/hn.spl"
        C-H = "/home/andersx/dev/slko-3OB_distribute130926/ch.spl"
        C-C = "/home/andersx/dev/slko-3OB_distribute130926/cc.spl"
        C-N = "/home/andersx/dev/slko-3OB_distribute130926/cn.spl"
        N-H = "/home/andersx/dev/slko-3OB_distribute130926/nh.spl"
        N-C = "/home/andersx/dev/slko-3OB_distribute130926/nc.spl"
        N-N = "/home/andersx/dev/slko-3OB_distribute130926/nn.spl"
    }
    MaxAngularMomentum {
        H = "s" 
        C = "p" 
        N = "p" 
    }
    Filling = Fermi {
        Temperature [Kelvin] = 0.0
    }
    SCCTolerance = 1.0000000000000001E-07
    Mixer = DIIS {}
    ThirdOrderFull = Yes
    DampXH = Yes
    DampXHExponent = 4.00
    HubbardDerivs = {

        H = -0.1857
        C = -0.1492
        N = -0.1535
    }
}



Options {
    WriteBandOut = No
    WriteDetailedOut = No
    }

ParserOptions {
    ParserVersion = 4
    WriteHSDInput = No
}

