Geometry = GenFormat {
87  C
  C N O H
   1   1    -4.1275378700    -8.2735466160   -15.2248871360 
   2   1    -4.9973044500    -7.6827999460   -16.1502625270 
   3   1    -6.0564022640    -8.4505036770   -16.6532665670 
   4   1    -6.2602548430    -9.7596944820   -16.2176930570 
   5   1    -5.4008472710   -10.3269777890   -15.2758820400 
   6   1    -4.3266288640    -9.5828903980   -14.7880455410 
   7   1    -4.8206152540    -6.2401432790   -16.5581527500 
   8   1    -5.6970861970    -5.2589392830   -15.7188664830 
   9   1    -5.4147119240    -3.8177559780   -16.1796784490 
  10   1    -7.9387894490    -6.0415883420   -14.9980998460 
  11   1    -9.3972679910    -6.1781336440   -15.3941504520 
  12   2    -4.4742196870    -3.1600806520   -15.4614055840 
  13   2    -7.1207640020    -5.4927560630   -15.9253998140 
  14   3    -7.5342958200    -6.4413575840   -13.8927267570 
  15   3    -5.9896254730    -3.3541336340   -17.1694266360 
  16   4    -9.6326404710    -7.2433841780   -15.4859831970 
  17   4    -4.2676058240    -2.2021968170   -15.7164119940 
  18   4   -10.0222544730    -5.7666576550   -14.5968091150 
  19   4    -9.6405264760    -5.6798986880   -16.3369603510 
  20   4    -7.5044699200    -5.0592416400   -16.7612183640 
  21   4    -5.4827557290    -5.3891877230   -14.6565555830 
  22   4    -5.0748936540    -6.0990818660   -17.6150769880 
  23   4    -3.7767120270    -5.9363982860   -16.4261666740 
  24   4    -6.7270903740    -8.0128598070   -17.3888685590 
  25   4    -3.2883162430    -7.6991076800   -14.8389541220 
  26   4    -7.0896633020   -10.3385854550   -16.6155269490 
  27   4    -3.6506571150   -10.0178182920   -14.0574452260 
  28   4    -5.5637807690   -11.3424661230   -14.9270658180 
  29   4    -4.1701842230    -3.5121492090   -14.5514707960 
  30   1    -3.9698503860    -4.9237239100   -11.7580473290 
  31   1    -4.8511072870    -6.0249748160   -11.1465895710 
  32   1    -7.1596862960    -5.6493459920   -10.3667775460 
  33   1    -4.4564979010    -7.3858280900   -11.7892621260 
  34   1    -5.1806058640    -8.5571110830   -11.1713936860 
  35   1    -6.4421626680    -8.9462218460   -11.6434160910 
  36   1    -7.1328213350    -9.9923297670   -11.0296972200 
  37   1    -6.5728511250   -10.6660291560    -9.9428159180 
  38   1    -5.3092068000   -10.2980356580    -9.4787946740 
  39   1    -4.6194187350    -9.2536553940   -10.0932855870 
  40   1    -8.6097396310    -5.5271684530   -10.7925933870 
  41   1    -3.1667995060    -5.1166869170    -7.1344876320 
  42   1    -4.3019756390    -5.9569288690    -6.5028130340 
  43   1    -5.9428668510    -4.2717254040    -5.7660630810 
  44   1    -4.3947939390    -7.3583984730    -7.1274385170 
  45   1    -5.3943504900    -8.2558244730    -6.4328510090 
  46   1    -5.0241131160    -9.0029658330    -5.3073426510 
  47   1    -5.9436638580    -9.8320479500    -4.6648634670 
  48   1    -7.2518228370    -9.9259289810    -5.1433213080 
  49   1    -7.6302868370    -9.1865509450    -6.2648393730 
  50   1    -6.7085024190    -8.3591501880    -6.9058295110 
  51   1    -7.3244772350    -3.6872969410    -5.9875307610 
  52   2    -6.2610562180    -5.7439575760   -11.3751040770 
  53   2    -2.9822006620    -4.4696100110   -10.9628433810 
  54   2    -2.7610634160    -4.0897190100    -6.3519891080 
  55   2    -5.5656729800    -5.2314037770    -6.6489391520 
  56   3    -4.1395874460    -4.5327932390   -12.9244949080 
  57   3    -6.8363624230    -5.6451937670    -9.1647669750 
  58   3    -2.6837735110    -5.3628261570    -8.2504221420 
  59   3    -5.2117445200    -3.9096265780    -4.8259791360 
  60   4    -7.9752528440    -4.0216139450    -5.1724589320 
  61   4    -2.1209343280    -3.4066502550    -6.7394608960 
  62   4    -7.2660463170    -2.5965489970    -5.9413467950 
  63   4    -2.3364849980    -3.7875248120   -11.3414772590 
  64   4    -9.1999420890    -6.2497156160   -10.2223063980 
  65   4    -8.9694205380    -4.5249491760   -10.5361144830 
  66   4    -7.7618999510    -3.9977886730    -6.9398960670 
  67   4    -6.1113090090    -5.3968267050    -7.5005474960 
  68   4    -4.1104905750    -6.0388443200    -5.4274806010 
  69   4    -4.6571553890    -7.2655909760    -8.1836700640 
  70   4    -3.3957144600    -7.8045393090    -7.0832158250 
  71   4    -7.0021674410    -7.7951409750    -7.7869224320 
  72   4    -4.0036629810    -8.9384221820    -4.9339352090 
  73   4    -8.6447986810    -9.2597682450    -6.6475360960 
  74   4    -5.6385338870   -10.4080230360    -3.7951327650 
  75   4    -7.9688548890   -10.5742567610    -4.6471016920 
  76   4    -3.3477887820    -3.8358395800    -5.5495698590 
  77   4    -8.7466919730    -5.7042292260   -11.8616565590 
  78   4    -6.6152313970    -5.8613171610   -12.3299451620 
  79   4    -4.7073877250    -6.0610116260   -10.0659014510 
  80   4    -4.6784283550    -7.3243905130   -12.8585045950 
  81   4    -3.3727687280    -7.5071976410   -11.6783203580 
  82   4    -6.8783664400    -8.4267369110   -12.4921009560 
  83   4    -3.6357392840    -8.9679340920    -9.7277436290 
  84   4    -8.1110243540   -10.2830614210   -11.4038704420 
  85   4    -4.8676310280   -10.8142727690    -8.6316754390 
  86   4    -7.1157988610   -11.4726771540    -9.4585939090 
  87   4    -2.8549144930    -4.7847667170    -9.9947735470 
}

Hamiltonian = DFTB {
    charge = 0
    SCC = Yes
    SlaterKosterFiles {
        C-C = "/home/andersx/dev/slko-3OB_distribute130926/cc.spl"
        C-N = "/home/andersx/dev/slko-3OB_distribute130926/cn.spl"
        C-O = "/home/andersx/dev/slko-3OB_distribute130926/co.spl"
        C-H = "/home/andersx/dev/slko-3OB_distribute130926/ch.spl"
        N-C = "/home/andersx/dev/slko-3OB_distribute130926/nc.spl"
        N-N = "/home/andersx/dev/slko-3OB_distribute130926/nn.spl"
        N-O = "/home/andersx/dev/slko-3OB_distribute130926/no.spl"
        N-H = "/home/andersx/dev/slko-3OB_distribute130926/nh.spl"
        O-C = "/home/andersx/dev/slko-3OB_distribute130926/oc.spl"
        O-N = "/home/andersx/dev/slko-3OB_distribute130926/on.spl"
        O-O = "/home/andersx/dev/slko-3OB_distribute130926/oo.spl"
        O-H = "/home/andersx/dev/slko-3OB_distribute130926/oh.spl"
        H-C = "/home/andersx/dev/slko-3OB_distribute130926/hc.spl"
        H-N = "/home/andersx/dev/slko-3OB_distribute130926/hn.spl"
        H-O = "/home/andersx/dev/slko-3OB_distribute130926/ho.spl"
        H-H = "/home/andersx/dev/slko-3OB_distribute130926/hh.spl"
    }

InitialCharges = {
AllAtomCharges = { 
-0.10582476
 0.05583142
-0.10254981
-0.07015173
-0.07977073
-0.06996312
-0.14384142
-0.00804404
 0.54043532
 0.57736319
-0.32950082
-0.44539122
-0.26357591
-0.65536949
-0.59865766
 0.11211571
 0.24327659
 0.10840702
 0.08120501
 0.23336019
 0.11615126
 0.08203964
 0.07064967
 0.07009436
 0.07493597
 0.07476633
 0.07891734
 0.07884704
 0.27685472
 0.56369950
 0.00446857
 0.58998821
-0.14962972
 0.04951683
-0.11181483
-0.07423194
-0.08407519
-0.07030654
-0.11068216
-0.33714230
 0.55148366
 0.01475604
 0.56650045
-0.14659310
 0.04827486
-0.10812760
-0.07379163
-0.08704926
-0.07294755
-0.10566984
-0.32458978
-0.28309584
-0.43442067
-0.42893406
-0.31318640
-0.65438943
-0.67821528
-0.63389623
-0.64847547
 0.10875331
 0.24091433
 0.10440427
 0.24136670
 0.10947064
 0.10120015
 0.09345802
 0.28099641
 0.08870356
 0.09365786
 0.07341166
 0.10193726
 0.07240409
 0.07530414
 0.07574579
 0.07564742
 0.27496142
 0.10425834
 0.26768434
 0.09939953
 0.09500026
 0.06580874
 0.10577613
 0.07465143
 0.07494422
 0.07998933
 0.07677358
 0.28334369
}
}
    MaxAngularMomentum {
        C = "p" 
        N = "p" 
        O = "p" 
        H = "s" 
    }
    Filling = Fermi {
        Temperature [Kelvin] = 0.0
    }
    ThirdOrderFull = Yes
    DampXH = Yes
    DampXHExponent = 4.00
    SCCTolerance = 1.0000000000000001E-05
    Mixer = DIIS {}
    HubbardDerivs = {

        C = -0.1592
        N = -0.1535
        O = -0.1575
        H = -0.1857
    }
}



Options {
    WriteBandOut = No
    WriteDetailedOut = No
    }

ParserOptions {
    ParserVersion = 4
    WriteHSDInput = No
}

